DATASET = "thpack5";
INSTANCE = "065";

WIDTH = 233;
HEIGHT = 220;
LENGTH = 587;

NO_OF_SHAPES = 12;
size = [|
  55,50,26 |
  48,42,37 |
  47,34,26 |
  104,74,50 |
  83,70,40 |
  53,52,38 |
  108,69,49 |
  78,73,72 |
  77,62,24 |
  74,34,21 |
  49,38,37 |
  79,50,40 |
|];

verticality = [|
  0,1,1 |
  1,1,1 |
  1,1,1 |
  0,1,1 |
  0,1,1 |
  1,1,1 |
  0,1,1 |
  1,1,1 |
  0,0,1 |
  0,1,1 |
  1,1,1 |
  1,1,1 |
|];

box_count = [
  7,
  14,
  9,
  15,
  16,
  15,
  19,
  13,
  12,
  15,
  15,
  10,
];
